p tw 54 60
1 2
2 13
3 4
3 6
4 5
5 8
6 7
7 8
8 9
9 10
10 11
11 12
12 14
13 24
14 15
15 16
16 17
16 20
17 18
18 19
19 23
20 21
21 22
22 23
23 25
24 35
25 26
26 27
27 28
27 39
28 29
29 30
29 39
30 31
31 32
32 33
33 34
34 36
35 46
36 37
37 38
37 39
38 39
39 40
40 41
41 42
42 43
43 44
44 45
45 47
46 51
47 48
48 49
49 50
51 52
51 49
52 53
53 54
53 49
54 3
